p tw 144 26641 2 
1 73 
1 75 
1 78 
1 80 
1 81 
1 84 
1 85 
1 87 
1 89 
1 92 
1 94 
1 96 
1 98 
1 99 
1 101 
1 104 
1 105 
1 108 
1 109 
1 111 
1 113 
1 116 
1 117 
1 120 
1 122 
1 123 
1 126 
1 128 
1 130 
1 132 
1 134 
1 136 
1 137 
1 140 
1 141 
1 143 
2 74 
2 76 
2 77 
2 79 
2 82 
2 83 
2 86 
2 88 
2 90 
2 91 
2 93 
2 95 
2 97 
2 100 
2 102 
2 103 
2 106 
2 107 
2 110 
2 112 
2 114 
2 115 
2 118 
2 119 
2 121 
2 124 
2 125 
2 127 
2 129 
2 131 
2 133 
2 135 
2 138 
2 139 
2 142 
2 144 
3 4 
3 74 
3 75 
3 77 
3 80 
3 82 
3 84 
3 85 
3 88 
3 89 
3 91 
3 94 
3 96 
3 97 
3 99 
3 101 
3 103 
3 105 
3 107 
3 109 
3 111 
3 114 
3 115 
3 117 
3 119 
3 121 
3 123 
3 125 
3 128 
3 129 
3 131 
3 134 
3 135 
3 137 
3 139 
3 142 
3 143 
4 73 
4 76 
4 78 
4 79 
4 81 
4 83 
4 86 
4 87 
4 90 
4 92 
4 93 
4 95 
4 98 
4 100 
4 102 
4 104 
4 106 
4 108 
4 110 
4 112 
4 113 
4 116 
4 118 
4 120 
4 122 
4 124 
4 126 
4 127 
4 130 
4 132 
4 133 
4 136 
4 138 
4 140 
4 141 
4 144 
5 6 
5 74 
5 76 
5 78 
5 79 
5 81 
5 83 
5 85 
5 87 
5 90 
5 91 
5 94 
5 96 
5 98 
5 99 
5 102 
5 103 
5 105 
5 108 
5 110 
5 111 
5 113 
5 115 
5 117 
5 119 
5 121 
5 124 
5 126 
5 128 
5 129 
5 132 
5 133 
5 136 
5 138 
5 139 
5 142 
5 143 
6 73 
6 75 
6 77 
6 80 
6 82 
6 84 
6 86 
6 88 
6 89 
6 92 
6 93 
6 95 
6 97 
6 100 
6 101 
6 104 
6 106 
6 107 
6 109 
6 112 
6 114 
6 116 
6 118 
6 120 
6 122 
6 123 
6 125 
6 127 
6 130 
6 131 
6 134 
6 135 
6 137 
6 140 
6 141 
6 144 
7 8 
7 74 
7 76 
7 77 
7 79 
7 82 
7 84 
7 86 
7 87 
7 89 
7 92 
7 94 
7 95 
7 97 
7 99 
7 102 
7 103 
7 105 
7 107 
7 110 
7 111 
7 113 
7 116 
7 118 
7 119 
7 122 
7 124 
7 126 
7 128 
7 130 
7 131 
7 134 
7 136 
7 137 
7 139 
7 141 
7 144 
8 73 
8 75 
8 78 
8 80 
8 81 
8 83 
8 85 
8 88 
8 90 
8 91 
8 93 
8 96 
8 98 
8 100 
8 101 
8 104 
8 106 
8 108 
8 109 
8 112 
8 114 
8 115 
8 117 
8 120 
8 121 
8 123 
8 125 
8 127 
8 129 
8 132 
8 133 
8 135 
8 138 
8 140 
8 142 
8 143 
9 10 
9 74 
9 76 
9 78 
9 80 
9 82 
9 84 
9 86 
9 88 
9 90 
9 92 
9 93 
9 96 
9 98 
9 99 
9 101 
9 103 
9 106 
9 108 
9 109 
9 111 
9 114 
9 116 
9 118 
9 120 
9 121 
9 124 
9 126 
9 128 
9 130 
9 132 
9 134 
9 135 
9 138 
9 139 
9 142 
9 144 
10 73 
10 75 
10 77 
10 79 
10 81 
10 83 
10 85 
10 87 
10 89 
10 91 
10 94 
10 95 
10 97 
10 100 
10 102 
10 104 
10 105 
10 107 
10 110 
10 112 
10 113 
10 115 
10 117 
10 119 
10 122 
10 123 
10 125 
10 127 
10 129 
10 131 
10 133 
10 136 
10 137 
10 140 
10 141 
10 143 
11 12 
11 73 
11 76 
11 77 
11 80 
11 82 
11 83 
11 85 
11 87 
11 90 
11 91 
11 93 
11 95 
11 97 
11 99 
11 101 
11 104 
11 105 
11 108 
11 110 
11 111 
11 114 
11 116 
11 118 
11 120 
11 122 
11 123 
11 126 
11 127 
11 129 
11 131 
11 134 
11 136 
11 138 
11 139 
11 142 
11 143 
12 74 
12 75 
12 78 
12 79 
12 81 
12 84 
12 86 
12 88 
12 89 
12 92 
12 94 
12 96 
12 98 
12 100 
12 102 
12 103 
12 106 
12 107 
12 109 
12 112 
12 113 
12 115 
12 117 
12 119 
12 121 
12 124 
12 125 
12 128 
12 130 
12 132 
12 133 
12 135 
12 137 
12 140 
12 141 
12 144 
13 14 
13 74 
13 75 
13 77 
13 79 
13 82 
13 84 
13 85 
13 87 
13 90 
13 92 
13 93 
13 95 
13 98 
13 99 
13 101 
13 103 
13 106 
13 107 
13 110 
13 112 
13 113 
13 116 
13 117 
13 119 
13 121 
13 123 
13 125 
13 127 
13 130 
13 132 
13 134 
13 136 
13 138 
13 140 
13 142 
13 143 
14 73 
14 76 
14 78 
14 80 
14 81 
14 83 
14 86 
14 88 
14 89 
14 91 
14 94 
14 96 
14 97 
14 100 
14 102 
14 104 
14 105 
14 108 
14 109 
14 111 
14 114 
14 115 
14 118 
14 120 
14 122 
14 124 
14 126 
14 128 
14 129 
14 131 
14 133 
14 135 
14 137 
14 139 
14 141 
14 144 
15 16 
15 74 
15 76 
15 77 
15 80 
15 82 
15 83 
15 86 
15 87 
15 89 
15 92 
15 94 
15 95 
15 98 
15 99 
15 102 
15 103 
15 105 
15 108 
15 109 
15 112 
15 114 
15 115 
15 117 
15 120 
15 122 
15 124 
15 125 
15 127 
15 129 
15 132 
15 134 
15 135 
15 138 
15 140 
15 141 
15 143 
16 73 
16 75 
16 78 
16 79 
16 81 
16 84 
16 85 
16 88 
16 90 
16 91 
16 93 
16 96 
16 97 
16 100 
16 101 
16 104 
16 106 
16 107 
16 110 
16 111 
16 113 
16 116 
16 118 
16 119 
16 121 
16 123 
16 126 
16 128 
16 130 
16 131 
16 133 
16 136 
16 137 
16 139 
16 142 
16 144 
17 18 
17 73 
17 76 
17 77 
17 80 
17 81 
17 84 
17 85 
17 87 
17 89 
17 91 
17 94 
17 96 
17 98 
17 99 
17 102 
17 104 
17 106 
17 107 
17 110 
17 112 
17 114 
17 115 
17 118 
17 119 
17 121 
17 123 
17 126 
17 127 
17 130 
17 132 
17 134 
17 135 
17 138 
17 139 
17 141 
17 144 
18 74 
18 75 
18 78 
18 79 
18 82 
18 83 
18 86 
18 88 
18 90 
18 92 
18 93 
18 95 
18 97 
18 100 
18 101 
18 103 
18 105 
18 108 
18 109 
18 111 
18 113 
18 116 
18 117 
18 120 
18 122 
18 124 
18 125 
18 128 
18 129 
18 131 
18 133 
18 136 
18 137 
18 140 
18 142 
18 143 
19 20 
19 73 
19 76 
19 77 
19 79 
19 81 
19 84 
19 85 
19 87 
19 90 
19 91 
19 93 
19 95 
19 98 
19 100 
19 101 
19 103 
19 105 
19 108 
19 109 
19 112 
19 114 
19 115 
19 117 
19 119 
19 122 
19 124 
19 126 
19 128 
19 130 
19 131 
19 134 
19 135 
19 137 
19 140 
19 142 
19 144 
20 74 
20 75 
20 78 
20 80 
20 82 
20 83 
20 86 
20 88 
20 89 
20 92 
20 94 
20 96 
20 97 
20 99 
20 102 
20 104 
20 106 
20 107 
20 110 
20 111 
20 113 
20 116 
20 118 
20 120 
20 121 
20 123 
20 125 
20 127 
20 129 
20 132 
20 133 
20 136 
20 138 
20 139 
20 141 
20 143 
21 22 
21 73 
21 75 
21 78 
21 79 
21 82 
21 84 
21 86 
21 87 
21 90 
21 91 
21 94 
21 95 
21 98 
21 99 
21 101 
21 104 
21 105 
21 107 
21 109 
21 112 
21 114 
21 115 
21 118 
21 120 
21 121 
21 124 
21 125 
21 128 
21 130 
21 131 
21 133 
21 136 
21 138 
21 139 
21 141 
21 143 
22 74 
22 76 
22 77 
22 80 
22 81 
22 83 
22 85 
22 88 
22 89 
22 92 
22 93 
22 96 
22 97 
22 100 
22 102 
22 103 
22 106 
22 108 
22 110 
22 111 
22 113 
22 116 
22 117 
22 119 
22 122 
22 123 
22 126 
22 127 
22 129 
22 132 
22 134 
22 135 
22 137 
22 140 
22 142 
22 144 
23 24 
23 74 
23 75 
23 77 
23 80 
23 81 
23 83 
23 85 
23 87 
23 90 
23 92 
23 93 
23 95 
23 97 
23 100 
23 102 
23 104 
23 106 
23 108 
23 109 
23 111 
23 114 
23 115 
23 118 
23 119 
23 121 
23 124 
23 125 
23 128 
23 130 
23 132 
23 134 
23 136 
23 137 
23 139 
23 141 
23 143 
24 73 
24 76 
24 78 
24 79 
24 82 
24 84 
24 86 
24 88 
24 89 
24 91 
24 94 
24 96 
24 98 
24 99 
24 101 
24 103 
24 105 
24 107 
24 110 
24 112 
24 113 
24 116 
24 117 
24 120 
24 122 
24 123 
24 126 
24 127 
24 129 
24 131 
24 133 
24 135 
24 138 
24 140 
24 142 
24 144 
25 26 
25 73 
25 76 
25 78 
25 79 
25 82 
25 83 
25 85 
25 87 
25 89 
25 91 
25 94 
25 95 
25 98 
25 100 
25 102 
25 103 
25 106 
25 107 
25 109 
25 111 
25 114 
25 116 
25 118 
25 120 
25 121 
25 123 
25 125 
25 128 
25 129 
25 132 
25 134 
25 136 
25 137 
25 140 
25 142 
25 144 
26 74 
26 75 
26 77 
26 80 
26 81 
26 84 
26 86 
26 88 
26 90 
26 92 
26 93 
26 96 
26 97 
26 99 
26 101 
26 104 
26 105 
26 108 
26 110 
26 112 
26 113 
26 115 
26 117 
26 119 
26 122 
26 124 
26 126 
26 127 
26 130 
26 131 
26 133 
26 135 
26 138 
26 139 
26 141 
26 143 
27 28 
27 74 
27 76 
27 78 
27 79 
27 82 
27 83 
27 85 
27 88 
27 90 
27 91 
27 94 
27 95 
27 97 
27 99 
27 101 
27 104 
27 106 
27 108 
27 110 
27 112 
27 113 
27 115 
27 117 
27 120 
27 122 
27 123 
27 125 
27 128 
27 130 
27 132 
27 134 
27 135 
27 137 
27 139 
27 141 
27 144 
28 73 
28 75 
28 77 
28 80 
28 81 
28 84 
28 86 
28 87 
28 89 
28 92 
28 93 
28 96 
28 98 
28 100 
28 102 
28 103 
28 105 
28 107 
28 109 
28 111 
28 114 
28 116 
28 118 
28 119 
28 121 
28 124 
28 126 
28 127 
28 129 
28 131 
28 133 
28 136 
28 138 
28 140 
28 142 
28 143 
29 30 
29 73 
29 76 
29 78 
29 80 
29 82 
29 84 
29 86 
29 88 
29 90 
29 91 
29 94 
29 95 
29 97 
29 100 
29 102 
29 103 
29 106 
29 108 
29 109 
29 111 
29 113 
29 115 
29 117 
29 119 
29 121 
29 123 
29 126 
29 127 
29 130 
29 131 
29 134 
29 136 
29 138 
29 140 
29 141 
29 143 
30 74 
30 75 
30 77 
30 79 
30 81 
30 83 
30 85 
30 87 
30 89 
30 92 
30 93 
30 96 
30 98 
30 99 
30 101 
30 104 
30 105 
30 107 
30 110 
30 112 
30 114 
30 116 
30 118 
30 120 
30 122 
30 124 
30 125 
30 128 
30 129 
30 132 
30 133 
30 135 
30 137 
30 139 
30 142 
30 144 
31 32 
31 73 
31 75 
31 77 
31 79 
31 82 
31 84 
31 85 
31 87 
31 90 
31 92 
31 94 
31 96 
31 97 
31 100 
31 102 
31 103 
31 105 
31 108 
31 109 
31 111 
31 113 
31 115 
31 118 
31 120 
31 122 
31 123 
31 125 
31 127 
31 130 
31 132 
31 133 
31 135 
31 138 
31 139 
31 142 
31 144 
32 74 
32 76 
32 78 
32 80 
32 81 
32 83 
32 86 
32 88 
32 89 
32 91 
32 93 
32 95 
32 98 
32 99 
32 101 
32 104 
32 106 
32 107 
32 110 
32 112 
32 114 
32 116 
32 117 
32 119 
32 121 
32 124 
32 126 
32 128 
32 129 
32 131 
32 134 
32 136 
32 137 
32 140 
32 141 
32 143 
33 34 
33 73 
33 75 
33 77 
33 80 
33 82 
33 83 
33 86 
33 87 
33 90 
33 92 
33 94 
33 95 
33 98 
33 99 
33 102 
33 104 
33 106 
33 108 
33 109 
33 112 
33 113 
33 116 
33 117 
33 119 
33 121 
33 123 
33 126 
33 128 
33 129 
33 131 
33 133 
33 135 
33 137 
33 139 
33 142 
33 144 
34 74 
34 76 
34 78 
34 79 
34 81 
34 84 
34 85 
34 88 
34 89 
34 91 
34 93 
34 96 
34 97 
34 100 
34 101 
34 103 
34 105 
34 107 
34 110 
34 111 
34 114 
34 115 
34 118 
34 120 
34 122 
34 124 
34 125 
34 127 
34 130 
34 132 
34 134 
34 136 
34 138 
34 140 
34 141 
34 143 
35 36 
35 74 
35 76 
35 78 
35 79 
35 81 
35 84 
35 86 
35 87 
35 90 
35 92 
35 94 
35 95 
35 97 
35 99 
35 101 
35 104 
35 106 
35 107 
35 109 
35 111 
35 114 
35 115 
35 118 
35 119 
35 122 
35 123 
35 126 
35 127 
35 129 
35 132 
35 133 
35 135 
35 137 
35 140 
35 142 
35 143 
36 73 
36 75 
36 77 
36 80 
36 82 
36 83 
36 85 
36 88 
36 89 
36 91 
36 93 
36 96 
36 98 
36 100 
36 102 
36 103 
36 105 
36 108 
36 110 
36 112 
36 113 
36 116 
36 117 
36 120 
36 121 
36 124 
36 125 
36 128 
36 130 
36 131 
36 134 
36 136 
36 138 
36 139 
36 141 
36 144 
37 38 
37 73 
37 75 
37 78 
37 79 
37 82 
37 84 
37 86 
37 87 
37 90 
37 91 
37 93 
37 96 
37 97 
37 99 
37 102 
37 104 
37 105 
37 108 
37 110 
37 111 
37 114 
37 116 
37 117 
37 119 
37 121 
37 124 
37 125 
37 127 
37 129 
37 132 
37 134 
37 135 
37 137 
37 140 
37 141 
37 144 
38 74 
38 76 
38 77 
38 80 
38 81 
38 83 
38 85 
38 88 
38 89 
38 92 
38 94 
38 95 
38 98 
38 100 
38 101 
38 103 
38 106 
38 107 
38 109 
38 112 
38 113 
38 115 
38 118 
38 120 
38 122 
38 123 
38 126 
38 128 
38 130 
38 131 
38 133 
38 136 
38 138 
38 139 
38 142 
38 143 
39 40 
39 73 
39 75 
39 78 
39 80 
39 81 
39 84 
39 86 
39 87 
39 89 
39 91 
39 94 
39 95 
39 97 
39 100 
39 101 
39 103 
39 106 
39 108 
39 110 
39 112 
39 113 
39 116 
39 118 
39 119 
39 122 
39 124 
39 125 
39 128 
39 129 
39 132 
39 134 
39 135 
39 138 
39 139 
39 142 
39 143 
40 74 
40 76 
40 77 
40 79 
40 82 
40 83 
40 85 
40 88 
40 90 
40 92 
40 93 
40 96 
40 98 
40 99 
40 102 
40 104 
40 105 
40 107 
40 109 
40 111 
40 114 
40 115 
40 117 
40 120 
40 121 
40 123 
40 126 
40 127 
40 130 
40 131 
40 133 
40 136 
40 137 
40 140 
40 141 
40 144 
41 42 
41 74 
41 75 
41 78 
41 80 
41 82 
41 84 
41 85 
41 87 
41 90 
41 92 
41 94 
41 96 
41 97 
41 100 
41 102 
41 104 
41 106 
41 107 
41 110 
41 112 
41 114 
41 115 
41 117 
41 120 
41 122 
41 124 
41 126 
41 128 
41 129 
41 131 
41 134 
41 136 
41 138 
41 140 
41 142 
41 144 
42 73 
42 76 
42 77 
42 79 
42 81 
42 83 
42 86 
42 88 
42 89 
42 91 
42 93 
42 95 
42 98 
42 99 
42 101 
42 103 
42 105 
42 108 
42 109 
42 111 
42 113 
42 116 
42 118 
42 119 
42 121 
42 123 
42 125 
42 127 
42 130 
42 132 
42 133 
42 135 
42 137 
42 139 
42 141 
42 143 
43 44 
43 73 
43 76 
43 77 
43 80 
43 81 
43 84 
43 86 
43 88 
43 90 
43 92 
43 94 
43 95 
43 98 
43 100 
43 101 
43 104 
43 105 
43 107 
43 110 
43 111 
43 113 
43 115 
43 117 
43 120 
43 121 
43 124 
43 125 
43 127 
43 129 
43 132 
43 134 
43 136 
43 137 
43 139 
43 142 
43 144 
44 74 
44 75 
44 78 
44 79 
44 82 
44 83 
44 85 
44 87 
44 89 
44 91 
44 93 
44 96 
44 97 
44 99 
44 102 
44 103 
44 106 
44 108 
44 109 
44 112 
44 114 
44 116 
44 118 
44 119 
44 122 
44 123 
44 126 
44 128 
44 130 
44 131 
44 133 
44 135 
44 138 
44 140 
44 141 
44 143 
45 46 
45 74 
45 76 
45 77 
45 79 
45 81 
45 84 
45 86 
45 87 
45 90 
45 91 
45 93 
45 96 
45 98 
45 100 
45 102 
45 104 
45 106 
45 107 
45 109 
45 111 
45 113 
45 116 
45 117 
45 120 
45 122 
45 123 
45 125 
45 128 
45 129 
45 131 
45 134 
45 135 
45 138 
45 139 
45 141 
45 143 
46 73 
46 75 
46 78 
46 80 
46 82 
46 83 
46 85 
46 88 
46 89 
46 92 
46 94 
46 95 
46 97 
46 99 
46 101 
46 103 
46 105 
46 108 
46 110 
46 112 
46 114 
46 115 
46 118 
46 119 
46 121 
46 124 
46 126 
46 127 
46 130 
46 132 
46 133 
46 136 
46 137 
46 140 
46 142 
46 144 
47 48 
47 74 
47 76 
47 77 
47 80 
47 82 
47 84 
47 86 
47 88 
47 90 
47 91 
47 94 
47 96 
47 98 
47 100 
47 102 
47 104 
47 105 
47 108 
47 110 
47 112 
47 114 
47 116 
47 118 
47 119 
47 122 
47 123 
47 125 
47 128 
47 130 
47 132 
47 133 
47 136 
47 137 
47 140 
47 142 
47 143 
48 73 
48 75 
48 78 
48 79 
48 81 
48 83 
48 85 
48 87 
48 89 
48 92 
48 93 
48 95 
48 97 
48 99 
48 101 
48 103 
48 106 
48 107 
48 109 
48 111 
48 113 
48 115 
48 117 
48 120 
48 121 
48 124 
48 126 
48 127 
48 129 
48 131 
48 134 
48 135 
48 138 
48 139 
48 141 
48 144 
49 50 
49 73 
49 76 
49 77 
49 79 
49 82 
49 83 
49 85 
49 88 
49 90 
49 92 
49 94 
49 96 
49 97 
49 100 
49 101 
49 104 
49 105 
49 107 
49 109 
49 112 
49 113 
49 116 
49 118 
49 119 
49 121 
49 124 
49 126 
49 128 
49 129 
49 132 
49 134 
49 135 
49 138 
49 140 
49 141 
49 143 
50 74 
50 75 
50 78 
50 80 
50 81 
50 84 
50 86 
50 87 
50 89 
50 91 
50 93 
50 95 
50 98 
50 99 
50 102 
50 103 
50 106 
50 108 
50 110 
50 111 
50 114 
50 115 
50 117 
50 120 
50 122 
50 123 
50 125 
50 127 
50 130 
50 131 
50 133 
50 136 
50 137 
50 139 
50 142 
50 144 
51 52 
51 74 
51 75 
51 77 
51 79 
51 82 
51 83 
51 86 
51 87 
51 89 
51 91 
51 94 
51 96 
51 98 
51 100 
51 101 
51 104 
51 106 
51 108 
51 110 
51 111 
51 113 
51 115 
51 118 
51 120 
51 121 
51 124 
51 126 
51 127 
51 130 
51 131 
51 134 
51 135 
51 137 
51 140 
51 142 
51 143 
52 73 
52 76 
52 78 
52 80 
52 81 
52 84 
52 85 
52 88 
52 90 
52 92 
52 93 
52 95 
52 97 
52 99 
52 102 
52 103 
52 105 
52 107 
52 109 
52 112 
52 114 
52 116 
52 117 
52 119 
52 122 
52 123 
52 125 
52 128 
52 129 
52 132 
52 133 
52 136 
52 138 
52 139 
52 141 
52 144 
53 54 
53 73 
53 76 
53 78 
53 80 
53 82 
53 83 
53 85 
53 87 
53 90 
53 92 
53 94 
53 96 
53 98 
53 100 
53 101 
53 103 
53 106 
53 107 
53 110 
53 111 
53 114 
53 116 
53 117 
53 119 
53 122 
53 124 
53 125 
53 127 
53 130 
53 131 
53 133 
53 135 
53 137 
53 139 
53 141 
53 143 
54 74 
54 75 
54 77 
54 79 
54 81 
54 84 
54 86 
54 88 
54 89 
54 91 
54 93 
54 95 
54 97 
54 99 
54 102 
54 104 
54 105 
54 108 
54 109 
54 112 
54 113 
54 115 
54 118 
54 120 
54 121 
54 123 
54 126 
54 128 
54 129 
54 132 
54 134 
54 136 
54 138 
54 140 
54 142 
54 144 
55 56 
55 74 
55 76 
55 78 
55 79 
55 81 
55 83 
55 86 
55 87 
55 89 
55 92 
55 94 
55 96 
55 97 
55 100 
55 101 
55 104 
55 105 
55 108 
55 109 
55 112 
55 114 
55 116 
55 117 
55 119 
55 121 
55 123 
55 125 
55 127 
55 130 
55 131 
55 134 
55 136 
55 138 
55 139 
55 142 
55 144 
56 73 
56 75 
56 77 
56 80 
56 82 
56 84 
56 85 
56 88 
56 90 
56 91 
56 93 
56 95 
56 98 
56 99 
56 102 
56 103 
56 106 
56 107 
56 110 
56 111 
56 113 
56 115 
56 118 
56 120 
56 122 
56 124 
56 126 
56 128 
56 129 
56 132 
56 133 
56 135 
56 137 
56 140 
56 141 
56 143 
57 58 
57 74 
57 75 
57 78 
57 80 
57 81 
57 83 
57 85 
57 88 
57 90 
57 91 
57 94 
57 95 
57 98 
57 99 
57 102 
57 104 
57 105 
57 107 
57 109 
57 111 
57 113 
57 116 
57 118 
57 119 
57 122 
57 124 
57 125 
57 127 
57 130 
57 131 
57 134 
57 135 
57 138 
57 140 
57 142 
57 144 
58 73 
58 76 
58 77 
58 79 
58 82 
58 84 
58 86 
58 87 
58 89 
58 92 
58 93 
58 96 
58 97 
58 100 
58 101 
58 103 
58 106 
58 108 
58 110 
58 112 
58 114 
58 115 
58 117 
58 120 
58 121 
58 123 
58 126 
58 128 
58 129 
58 132 
58 133 
58 136 
58 137 
58 139 
58 141 
58 143 
59 60 
59 74 
59 75 
59 78 
59 80 
59 82 
59 83 
59 86 
59 87 
59 90 
59 91 
59 93 
59 96 
59 98 
59 100 
59 101 
59 103 
59 105 
59 107 
59 109 
59 112 
59 113 
59 115 
59 118 
59 119 
59 122 
59 123 
59 126 
59 127 
59 129 
59 132 
59 134 
59 136 
59 137 
59 139 
59 141 
59 144 
60 73 
60 76 
60 77 
60 79 
60 81 
60 84 
60 85 
60 88 
60 89 
60 92 
60 94 
60 95 
60 97 
60 99 
60 102 
60 104 
60 106 
60 108 
60 110 
60 111 
60 114 
60 116 
60 117 
60 120 
60 121 
60 124 
60 125 
60 128 
60 130 
60 131 
60 133 
60 135 
60 138 
60 140 
60 142 
60 143 
61 62 
61 74 
61 75 
61 77 
61 80 
61 81 
61 83 
61 86 
61 87 
61 90 
61 91 
61 94 
61 95 
61 97 
61 100 
61 101 
61 103 
61 105 
61 107 
61 110 
61 111 
61 114 
61 116 
61 117 
61 120 
61 121 
61 123 
61 126 
61 128 
61 130 
61 132 
61 133 
61 135 
61 138 
61 140 
61 141 
61 144 
62 73 
62 76 
62 78 
62 79 
62 82 
62 84 
62 85 
62 88 
62 89 
62 92 
62 93 
62 96 
62 98 
62 99 
62 102 
62 104 
62 106 
62 108 
62 109 
62 112 
62 113 
62 115 
62 118 
62 119 
62 122 
62 124 
62 125 
62 127 
62 129 
62 131 
62 134 
62 136 
62 137 
62 139 
62 142 
62 143 
63 64 
63 73 
63 75 
63 77 
63 79 
63 81 
63 83 
63 86 
63 88 
63 90 
63 92 
63 94 
63 96 
63 98 
63 99 
63 101 
63 103 
63 106 
63 108 
63 110 
63 111 
63 114 
63 115 
63 118 
63 119 
63 122 
63 123 
63 125 
63 128 
63 129 
63 131 
63 134 
63 136 
63 138 
63 140 
63 141 
63 144 
64 74 
64 76 
64 78 
64 80 
64 82 
64 84 
64 85 
64 87 
64 89 
64 91 
64 93 
64 95 
64 97 
64 100 
64 102 
64 104 
64 105 
64 107 
64 109 
64 112 
64 113 
64 116 
64 117 
64 120 
64 121 
64 124 
64 126 
64 127 
64 130 
64 132 
64 133 
64 135 
64 137 
64 139 
64 142 
64 143 
65 66 
65 73 
65 75 
65 77 
65 79 
65 81 
65 83 
65 86 
65 88 
65 90 
65 91 
65 94 
65 96 
65 97 
65 99 
65 102 
65 103 
65 106 
65 107 
65 109 
65 112 
65 114 
65 116 
65 117 
65 120 
65 122 
65 124 
65 126 
65 127 
65 130 
65 132 
65 134 
65 136 
65 137 
65 139 
65 142 
65 143 
66 74 
66 76 
66 78 
66 80 
66 82 
66 84 
66 85 
66 87 
66 89 
66 92 
66 93 
66 95 
66 98 
66 100 
66 101 
66 104 
66 105 
66 108 
66 110 
66 111 
66 113 
66 115 
66 118 
66 119 
66 121 
66 123 
66 125 
66 128 
66 129 
66 131 
66 133 
66 135 
66 138 
66 140 
66 141 
66 144 
67 68 
67 74 
67 75 
67 78 
67 79 
67 81 
67 84 
67 85 
67 88 
67 90 
67 92 
67 94 
67 95 
67 98 
67 100 
67 102 
67 103 
67 105 
67 108 
67 110 
67 112 
67 114 
67 116 
67 118 
67 120 
67 121 
67 123 
67 126 
67 127 
67 129 
67 131 
67 134 
67 135 
67 137 
67 139 
67 141 
67 143 
68 73 
68 76 
68 77 
68 80 
68 82 
68 83 
68 86 
68 87 
68 89 
68 91 
68 93 
68 96 
68 97 
68 99 
68 101 
68 104 
68 106 
68 107 
68 109 
68 111 
68 113 
68 115 
68 117 
68 119 
68 122 
68 124 
68 125 
68 128 
68 130 
68 132 
68 133 
68 136 
68 138 
68 140 
68 142 
68 144 
69 70 
69 73 
69 76 
69 78 
69 80 
69 81 
69 83 
69 86 
69 87 
69 90 
69 92 
69 93 
69 96 
69 97 
69 99 
69 102 
69 103 
69 105 
69 107 
69 110 
69 112 
69 113 
69 115 
69 118 
69 120 
69 121 
69 123 
69 125 
69 128 
69 130 
69 131 
69 134 
69 135 
69 137 
69 140 
69 142 
69 143 
70 74 
70 75 
70 77 
70 79 
70 82 
70 84 
70 85 
70 88 
70 89 
70 91 
70 94 
70 95 
70 98 
70 100 
70 101 
70 104 
70 106 
70 108 
70 109 
70 111 
70 114 
70 116 
70 117 
70 119 
70 122 
70 124 
70 126 
70 127 
70 129 
70 132 
70 133 
70 136 
70 138 
70 139 
70 141 
70 144 
71 72 
71 74 
71 76 
71 77 
71 80 
71 81 
71 84 
71 85 
71 87 
71 90 
71 91 
71 94 
71 96 
71 97 
71 99 
71 101 
71 103 
71 106 
71 108 
71 109 
71 112 
71 113 
71 116 
71 118 
71 120 
71 121 
71 124 
71 125 
71 127 
71 129 
71 131 
71 133 
71 136 
71 137 
71 140 
71 141 
71 144 
72 73 
72 75 
72 78 
72 79 
72 82 
72 83 
72 86 
72 88 
72 89 
72 92 
72 93 
72 95 
72 98 
72 100 
72 102 
72 104 
72 105 
72 107 
72 110 
72 111 
72 114 
72 115 
72 117 
72 119 
72 122 
72 123 
72 126 
72 128 
72 130 
72 132 
72 134 
72 135 
72 138 
72 139 
72 142 
72 143 
73 74 
75 76 
77 78 
79 80 
81 82 
83 84 
85 86 
87 88 
89 90 
91 92 
93 94 
95 96 
97 98 
99 100 
101 102 
103 104 
105 106 
107 108 
109 110 
111 112 
113 114 
115 116 
117 118 
119 120 
121 122 
123 124 
125 126 
127 128 
129 130 
131 132 
133 134 
135 136 
137 138 
139 140 
141 142 
143 144 
